c colouring generated by benchmark framework
p edge 47 1081
v 1 26
v 2 18
v 3 30
v 4 8
v 5 40
v 6 10
v 7 32
v 8 15
v 9 19
v 10 21
v 11 35
v 12 22
v 13 7
v 14 23
v 15 24
v 16 27
v 17 28
v 18 31
v 19 33
v 20 36
v 21 37
v 22 38
v 23 39
v 24 29
v 25 25
v 26 1
v 27 45
v 28 42
v 29 14
v 30 13
v 31 2
v 32 11
v 33 3
v 34 16
v 35 20
v 36 9
v 37 12
v 38 34
v 39 17
v 40 6
v 41 0
v 42 41
v 43 46
v 44 44
v 45 4
v 46 5
v 47 43
